37
UNDIRECTED
3 1 2 3
5 0 2 3 24 27
5 0 1 3 27 28
6 0 1 2 4 5 28
4 3 5 6 29
5 3 4 6 7 29
4 4 5 7 8
5 5 6 8 9 10
3 6 7 9
5 7 8 10 11 12
4 7 9 11 12
4 9 10 12 26
5 9 10 11 25 26
4 14 15 16 25
4 13 15 16 25
4 13 14 16 17
4 13 14 15 17
4 15 16 18 19
3 17 19 20
3 17 18 20
6 18 19 21 22 23 30
5 20 22 23 30 35
4 20 21 23 35
4 20 21 22 33
4 1 27 28 29
5 12 13 14 26 29
5 11 12 25 28 29
5 1 2 24 28 29
6 2 3 24 26 27 29
7 4 5 24 25 26 27 28
5 20 21 33 34 35
3 32 34 36
4 31 33 34 36
6 23 30 32 34 35 36
6 30 31 32 33 35 36
5 21 22 30 33 34
4 31 32 33 34
